num_offers = 30;
num_halls = 10;
start=[4,76,41,54,51,37,35,17,40,25,26,21,47,10,4,15,9,58,37,23,65,26,2,86,28,14,5,34,17,10];
end=[21,77,44,76,87,82,53,80,77,99,82,26,78,12,49,96,15,94,53,58,72,30,59,92,87,26,56,73,68,23];
price=[1173,48,368,1579,1944,4355,191,2867,3163,992,2165,253,1924,195,1591,8042,85,2059,354,524,561,265,2659,490,4883,174,3203,3415,4479,882];
requirement=[655,544,735,693,327,426,580,672,632,372,548,763,513,794,654,798,832,715,350,439,248,987,716,979,847,437,674,655,796,506];
capacity=[861,962,973,382,470,994,571,865,369,202];
